array [1..4] of int: X_INTRODUCED_35_ = [-20,-18,-15,-13];
array [1..3] of int: X_INTRODUCED_62_ = [1,1,1];
array [1..2] of int: X_INTRODUCED_67_ = [1,1];
array [1..25] of int: X_INTRODUCED_106_ = [1,-30,-30,-30,-30,-30,-30,-27,-27,-27,-27,-27,-27,-23,-23,-23,-23,-23,-23,-20,-20,-20,-20,-20,-20];
var 0..1: X_INTRODUCED_1_;
var 0..1: X_INTRODUCED_2_;
var 0..1: X_INTRODUCED_3_;
var 0..1: X_INTRODUCED_4_;
var 0..1: X_INTRODUCED_5_;
var 0..1: X_INTRODUCED_6_;
var 0..1: X_INTRODUCED_7_;
var 0..1: X_INTRODUCED_8_;
var 0..1: X_INTRODUCED_9_;
var 0..1: X_INTRODUCED_10_;
var 0..1: X_INTRODUCED_11_;
var 0..1: X_INTRODUCED_12_;
var 0..1: X_INTRODUCED_13_;
var 0..1: X_INTRODUCED_14_;
var 0..1: X_INTRODUCED_15_;
var 0..1: X_INTRODUCED_16_;
var 0..1: X_INTRODUCED_17_;
var 0..1: X_INTRODUCED_18_;
var 0..1: X_INTRODUCED_19_;
var 0..1: X_INTRODUCED_20_;
var 0..1: X_INTRODUCED_21_;
var 0..1: X_INTRODUCED_22_;
var 0..1: X_INTRODUCED_23_;
var 0..1: X_INTRODUCED_24_;
var 0..600: total_cost:: computed_domain:: output_var:: is_defined_var;
array [1..24] of var int: X_INTRODUCED_0_:: output_array([1..24]) = [X_INTRODUCED_1_,X_INTRODUCED_2_,X_INTRODUCED_3_,X_INTRODUCED_4_,X_INTRODUCED_5_,X_INTRODUCED_6_,X_INTRODUCED_7_,X_INTRODUCED_8_,X_INTRODUCED_9_,X_INTRODUCED_10_,X_INTRODUCED_11_,X_INTRODUCED_12_,X_INTRODUCED_13_,X_INTRODUCED_14_,X_INTRODUCED_15_,X_INTRODUCED_16_,X_INTRODUCED_17_,X_INTRODUCED_18_,X_INTRODUCED_19_,X_INTRODUCED_20_,X_INTRODUCED_21_,X_INTRODUCED_22_,X_INTRODUCED_23_,X_INTRODUCED_24_];
array [1..24] of var int: X_INTRODUCED_72_ ::var_is_introduced  = [X_INTRODUCED_1_,X_INTRODUCED_2_,X_INTRODUCED_3_,X_INTRODUCED_4_,X_INTRODUCED_5_,X_INTRODUCED_6_,X_INTRODUCED_7_,X_INTRODUCED_8_,X_INTRODUCED_9_,X_INTRODUCED_10_,X_INTRODUCED_11_,X_INTRODUCED_12_,X_INTRODUCED_13_,X_INTRODUCED_14_,X_INTRODUCED_15_,X_INTRODUCED_16_,X_INTRODUCED_17_,X_INTRODUCED_18_,X_INTRODUCED_19_,X_INTRODUCED_20_,X_INTRODUCED_21_,X_INTRODUCED_22_,X_INTRODUCED_23_,X_INTRODUCED_24_];
array [1..25] of var int: X_INTRODUCED_105_ ::var_is_introduced  = [total_cost,X_INTRODUCED_1_,X_INTRODUCED_2_,X_INTRODUCED_3_,X_INTRODUCED_4_,X_INTRODUCED_5_,X_INTRODUCED_6_,X_INTRODUCED_7_,X_INTRODUCED_8_,X_INTRODUCED_9_,X_INTRODUCED_10_,X_INTRODUCED_11_,X_INTRODUCED_12_,X_INTRODUCED_13_,X_INTRODUCED_14_,X_INTRODUCED_15_,X_INTRODUCED_16_,X_INTRODUCED_17_,X_INTRODUCED_18_,X_INTRODUCED_19_,X_INTRODUCED_20_,X_INTRODUCED_21_,X_INTRODUCED_22_,X_INTRODUCED_23_,X_INTRODUCED_24_];
constraint int_lin_le(X_INTRODUCED_35_,[X_INTRODUCED_1_,X_INTRODUCED_7_,X_INTRODUCED_13_,X_INTRODUCED_19_],-27);
constraint int_lin_le(X_INTRODUCED_35_,[X_INTRODUCED_2_,X_INTRODUCED_8_,X_INTRODUCED_14_,X_INTRODUCED_20_],-11);
constraint int_lin_le(X_INTRODUCED_35_,[X_INTRODUCED_3_,X_INTRODUCED_9_,X_INTRODUCED_15_,X_INTRODUCED_21_],-14);
constraint int_lin_le(X_INTRODUCED_35_,[X_INTRODUCED_4_,X_INTRODUCED_10_,X_INTRODUCED_16_,X_INTRODUCED_22_],-19);
constraint int_lin_le(X_INTRODUCED_35_,[X_INTRODUCED_5_,X_INTRODUCED_11_,X_INTRODUCED_17_,X_INTRODUCED_23_],-25);
constraint int_lin_le(X_INTRODUCED_35_,[X_INTRODUCED_6_,X_INTRODUCED_12_,X_INTRODUCED_18_,X_INTRODUCED_24_],-22);
constraint int_lin_le(X_INTRODUCED_62_,[X_INTRODUCED_19_,X_INTRODUCED_20_,X_INTRODUCED_21_],1);
constraint int_lin_le(X_INTRODUCED_62_,[X_INTRODUCED_20_,X_INTRODUCED_21_,X_INTRODUCED_22_],1);
constraint int_lin_le(X_INTRODUCED_62_,[X_INTRODUCED_21_,X_INTRODUCED_22_,X_INTRODUCED_23_],1);
constraint int_lin_le(X_INTRODUCED_62_,[X_INTRODUCED_22_,X_INTRODUCED_23_,X_INTRODUCED_24_],1);
constraint int_lin_le(X_INTRODUCED_67_,[X_INTRODUCED_13_,X_INTRODUCED_14_],1);
constraint int_lin_le(X_INTRODUCED_67_,[X_INTRODUCED_14_,X_INTRODUCED_15_],1);
constraint int_lin_le(X_INTRODUCED_67_,[X_INTRODUCED_15_,X_INTRODUCED_16_],1);
constraint int_lin_le(X_INTRODUCED_67_,[X_INTRODUCED_16_,X_INTRODUCED_17_],1);
constraint int_lin_le(X_INTRODUCED_67_,[X_INTRODUCED_17_,X_INTRODUCED_18_],1);
constraint int_lin_eq(X_INTRODUCED_106_,X_INTRODUCED_105_,0):: defines_var(total_cost);
solve :: int_search(X_INTRODUCED_72_,smallest,indomain_min,complete) minimize total_cost;
